c n orig vars 78
p cnf 231 636
79 -1 0
79 -2 0
-79 1 2 0
80 -3 0
80 -4 0
-80 3 4 0
81 -5 0
81 -6 0
-81 5 6 0
82 -7 0
82 -8 0
-82 7 8 0
83 -9 0
83 -10 0
-83 9 10 0
84 -11 0
84 -12 0
-84 11 12 0
85 -13 0
85 -14 0
-85 13 14 0
86 -15 0
86 -16 0
-86 15 16 0
87 -17 0
87 -18 0
-87 17 18 0
88 -19 0
88 -20 0
-88 19 20 0
89 -21 0
89 -22 0
-89 21 22 0
90 -23 0
90 -24 0
-90 23 24 0
91 -25 0
91 -26 0
-91 25 26 0
92 -27 0
92 -28 0
-92 27 28 0
93 -29 0
93 -30 0
-93 29 30 0
94 -31 0
94 -32 0
-94 31 32 0
95 -33 0
95 -34 0
-95 33 34 0
96 -35 0
96 -36 0
-96 35 36 0
-97 79 0
-97 80 0
-97 81 0
-97 82 0
-97 83 0
-97 84 0
-97 85 0
-97 86 0
-97 87 0
-97 88 0
-97 89 0
-97 90 0
-97 91 0
-97 92 0
-97 93 0
-97 94 0
-97 95 0
-97 96 0
97 -79 -80 -81 -82 -83 -84 -85 -86 -87 -88 -89 -90 -91 -92 -93 -94 -95 -96 0
-97 0
98 -37 0
98 -44 0
98 -51 0
98 -58 0
98 -65 0
98 -72 0
-98 37 44 51 58 65 72 0
99 -38 0
99 -45 0
99 -52 0
99 -59 0
99 -66 0
99 -73 0
-99 38 45 52 59 66 73 0
100 -39 0
100 -46 0
100 -53 0
100 -60 0
100 -67 0
100 -74 0
-100 39 46 53 60 67 74 0
101 -40 0
101 -47 0
101 -54 0
101 -61 0
101 -68 0
101 -75 0
-101 40 47 54 61 68 75 0
102 -41 0
102 -48 0
102 -55 0
102 -62 0
102 -69 0
102 -76 0
-102 41 48 55 62 69 76 0
103 -42 0
103 -49 0
103 -56 0
103 -63 0
103 -70 0
103 -77 0
-103 42 49 56 63 70 77 0
104 -43 0
104 -50 0
104 -57 0
104 -64 0
104 -71 0
104 -78 0
-104 43 50 57 64 71 78 0
105 37 0
105 38 0
-105 -37 -38 0
106 37 0
106 39 0
-106 -37 -39 0
107 37 0
107 40 0
-107 -37 -40 0
108 37 0
108 41 0
-108 -37 -41 0
109 37 0
109 42 0
-109 -37 -42 0
110 37 0
110 43 0
-110 -37 -43 0
111 38 0
111 39 0
-111 -38 -39 0
112 38 0
112 40 0
-112 -38 -40 0
113 38 0
113 41 0
-113 -38 -41 0
114 38 0
114 42 0
-114 -38 -42 0
115 38 0
115 43 0
-115 -38 -43 0
116 39 0
116 40 0
-116 -39 -40 0
117 39 0
117 41 0
-117 -39 -41 0
118 39 0
118 42 0
-118 -39 -42 0
119 39 0
119 43 0
-119 -39 -43 0
120 40 0
120 41 0
-120 -40 -41 0
121 40 0
121 42 0
-121 -40 -42 0
122 40 0
122 43 0
-122 -40 -43 0
123 41 0
123 42 0
-123 -41 -42 0
124 41 0
124 43 0
-124 -41 -43 0
125 42 0
125 43 0
-125 -42 -43 0
126 44 0
126 45 0
-126 -44 -45 0
127 44 0
127 46 0
-127 -44 -46 0
128 44 0
128 47 0
-128 -44 -47 0
129 44 0
129 48 0
-129 -44 -48 0
130 44 0
130 49 0
-130 -44 -49 0
131 44 0
131 50 0
-131 -44 -50 0
132 45 0
132 46 0
-132 -45 -46 0
133 45 0
133 47 0
-133 -45 -47 0
134 45 0
134 48 0
-134 -45 -48 0
135 45 0
135 49 0
-135 -45 -49 0
136 45 0
136 50 0
-136 -45 -50 0
137 46 0
137 47 0
-137 -46 -47 0
138 46 0
138 48 0
-138 -46 -48 0
139 46 0
139 49 0
-139 -46 -49 0
140 46 0
140 50 0
-140 -46 -50 0
141 47 0
141 48 0
-141 -47 -48 0
142 47 0
142 49 0
-142 -47 -49 0
143 47 0
143 50 0
-143 -47 -50 0
144 48 0
144 49 0
-144 -48 -49 0
145 48 0
145 50 0
-145 -48 -50 0
146 49 0
146 50 0
-146 -49 -50 0
147 51 0
147 52 0
-147 -51 -52 0
148 51 0
148 53 0
-148 -51 -53 0
149 51 0
149 54 0
-149 -51 -54 0
150 51 0
150 55 0
-150 -51 -55 0
151 51 0
151 56 0
-151 -51 -56 0
152 51 0
152 57 0
-152 -51 -57 0
153 52 0
153 53 0
-153 -52 -53 0
154 52 0
154 54 0
-154 -52 -54 0
155 52 0
155 55 0
-155 -52 -55 0
156 52 0
156 56 0
-156 -52 -56 0
157 52 0
157 57 0
-157 -52 -57 0
158 53 0
158 54 0
-158 -53 -54 0
159 53 0
159 55 0
-159 -53 -55 0
160 53 0
160 56 0
-160 -53 -56 0
161 53 0
161 57 0
-161 -53 -57 0
162 54 0
162 55 0
-162 -54 -55 0
163 54 0
163 56 0
-163 -54 -56 0
164 54 0
164 57 0
-164 -54 -57 0
165 55 0
165 56 0
-165 -55 -56 0
166 55 0
166 57 0
-166 -55 -57 0
167 56 0
167 57 0
-167 -56 -57 0
168 58 0
168 59 0
-168 -58 -59 0
169 58 0
169 60 0
-169 -58 -60 0
170 58 0
170 61 0
-170 -58 -61 0
171 58 0
171 62 0
-171 -58 -62 0
172 58 0
172 63 0
-172 -58 -63 0
173 58 0
173 64 0
-173 -58 -64 0
174 59 0
174 60 0
-174 -59 -60 0
175 59 0
175 61 0
-175 -59 -61 0
176 59 0
176 62 0
-176 -59 -62 0
177 59 0
177 63 0
-177 -59 -63 0
178 59 0
178 64 0
-178 -59 -64 0
179 60 0
179 61 0
-179 -60 -61 0
180 60 0
180 62 0
-180 -60 -62 0
181 60 0
181 63 0
-181 -60 -63 0
182 60 0
182 64 0
-182 -60 -64 0
183 61 0
183 62 0
-183 -61 -62 0
184 61 0
184 63 0
-184 -61 -63 0
185 61 0
185 64 0
-185 -61 -64 0
186 62 0
186 63 0
-186 -62 -63 0
187 62 0
187 64 0
-187 -62 -64 0
188 63 0
188 64 0
-188 -63 -64 0
189 65 0
189 66 0
-189 -65 -66 0
190 65 0
190 67 0
-190 -65 -67 0
191 65 0
191 68 0
-191 -65 -68 0
192 65 0
192 69 0
-192 -65 -69 0
193 65 0
193 70 0
-193 -65 -70 0
194 65 0
194 71 0
-194 -65 -71 0
195 66 0
195 67 0
-195 -66 -67 0
196 66 0
196 68 0
-196 -66 -68 0
197 66 0
197 69 0
-197 -66 -69 0
198 66 0
198 70 0
-198 -66 -70 0
199 66 0
199 71 0
-199 -66 -71 0
200 67 0
200 68 0
-200 -67 -68 0
201 67 0
201 69 0
-201 -67 -69 0
202 67 0
202 70 0
-202 -67 -70 0
203 67 0
203 71 0
-203 -67 -71 0
204 68 0
204 69 0
-204 -68 -69 0
205 68 0
205 70 0
-205 -68 -70 0
206 68 0
206 71 0
-206 -68 -71 0
207 69 0
207 70 0
-207 -69 -70 0
208 69 0
208 71 0
-208 -69 -71 0
209 70 0
209 71 0
-209 -70 -71 0
210 72 0
210 73 0
-210 -72 -73 0
211 72 0
211 74 0
-211 -72 -74 0
212 72 0
212 75 0
-212 -72 -75 0
213 72 0
213 76 0
-213 -72 -76 0
214 72 0
214 77 0
-214 -72 -77 0
215 72 0
215 78 0
-215 -72 -78 0
216 73 0
216 74 0
-216 -73 -74 0
217 73 0
217 75 0
-217 -73 -75 0
218 73 0
218 76 0
-218 -73 -76 0
219 73 0
219 77 0
-219 -73 -77 0
220 73 0
220 78 0
-220 -73 -78 0
221 74 0
221 75 0
-221 -74 -75 0
222 74 0
222 76 0
-222 -74 -76 0
223 74 0
223 77 0
-223 -74 -77 0
224 74 0
224 78 0
-224 -74 -78 0
225 75 0
225 76 0
-225 -75 -76 0
226 75 0
226 77 0
-226 -75 -77 0
227 75 0
227 78 0
-227 -75 -78 0
228 76 0
228 77 0
-228 -76 -77 0
229 76 0
229 78 0
-229 -76 -78 0
230 77 0
230 78 0
-230 -77 -78 0
-231 98 0
-231 99 0
-231 100 0
-231 101 0
-231 102 0
-231 103 0
-231 104 0
-231 105 0
-231 106 0
-231 107 0
-231 108 0
-231 109 0
-231 110 0
-231 111 0
-231 112 0
-231 113 0
-231 114 0
-231 115 0
-231 116 0
-231 117 0
-231 118 0
-231 119 0
-231 120 0
-231 121 0
-231 122 0
-231 123 0
-231 124 0
-231 125 0
-231 126 0
-231 127 0
-231 128 0
-231 129 0
-231 130 0
-231 131 0
-231 132 0
-231 133 0
-231 134 0
-231 135 0
-231 136 0
-231 137 0
-231 138 0
-231 139 0
-231 140 0
-231 141 0
-231 142 0
-231 143 0
-231 144 0
-231 145 0
-231 146 0
-231 147 0
-231 148 0
-231 149 0
-231 150 0
-231 151 0
-231 152 0
-231 153 0
-231 154 0
-231 155 0
-231 156 0
-231 157 0
-231 158 0
-231 159 0
-231 160 0
-231 161 0
-231 162 0
-231 163 0
-231 164 0
-231 165 0
-231 166 0
-231 167 0
-231 168 0
-231 169 0
-231 170 0
-231 171 0
-231 172 0
-231 173 0
-231 174 0
-231 175 0
-231 176 0
-231 177 0
-231 178 0
-231 179 0
-231 180 0
-231 181 0
-231 182 0
-231 183 0
-231 184 0
-231 185 0
-231 186 0
-231 187 0
-231 188 0
-231 189 0
-231 190 0
-231 191 0
-231 192 0
-231 193 0
-231 194 0
-231 195 0
-231 196 0
-231 197 0
-231 198 0
-231 199 0
-231 200 0
-231 201 0
-231 202 0
-231 203 0
-231 204 0
-231 205 0
-231 206 0
-231 207 0
-231 208 0
-231 209 0
-231 210 0
-231 211 0
-231 212 0
-231 213 0
-231 214 0
-231 215 0
-231 216 0
-231 217 0
-231 218 0
-231 219 0
-231 220 0
-231 221 0
-231 222 0
-231 223 0
-231 224 0
-231 225 0
-231 226 0
-231 227 0
-231 228 0
-231 229 0
-231 230 0
231 -98 -99 -100 -101 -102 -103 -104 -105 -106 -107 -108 -109 -110 -111 -112 -113 -114 -115 -116 -117 -118 -119 -120 -121 -122 -123 -124 -125 -126 -127 -128 -129 -130 -131 -132 -133 -134 -135 -136 -137 -138 -139 -140 -141 -142 -143 -144 -145 -146 -147 -148 -149 -150 -151 -152 -153 -154 -155 -156 -157 -158 -159 -160 -161 -162 -163 -164 -165 -166 -167 -168 -169 -170 -171 -172 -173 -174 -175 -176 -177 -178 -179 -180 -181 -182 -183 -184 -185 -186 -187 -188 -189 -190 -191 -192 -193 -194 -195 -196 -197 -198 -199 -200 -201 -202 -203 -204 -205 -206 -207 -208 -209 -210 -211 -212 -213 -214 -215 -216 -217 -218 -219 -220 -221 -222 -223 -224 -225 -226 -227 -228 -229 -230 0
-231 0
